db/inputs/2232212629280242627327513512246865714.smt2
(set-logic QF_FP)
(declare-const x0 (_ FloatingPoint 8 24))
(declare-const x1 (_ FloatingPoint 8 24))
(declare-const x2 (_ FloatingPoint 8 24))
(declare-const x3 (_ FloatingPoint 8 24))
(declare-const x4 (_ FloatingPoint 8 24))
(declare-const x5 (_ FloatingPoint 8 24))
(declare-const x6 (_ FloatingPoint 8 24))
(declare-const x7 (_ FloatingPoint 8 24))
(declare-const x8 (_ FloatingPoint 8 24))
(declare-const x9 (_ FloatingPoint 8 24))
(declare-const x10 (_ FloatingPoint 8 24))
(declare-const x11 (_ FloatingPoint 8 24))
(declare-const x12 (_ FloatingPoint 8 24))
(declare-const x13 (_ FloatingPoint 8 24))
(declare-const x14 (_ FloatingPoint 8 24))
(declare-const x15 (_ FloatingPoint 8 24))
(declare-const x16 (_ FloatingPoint 8 24))
(declare-const x17 (_ FloatingPoint 8 24))
(declare-const x18 (_ FloatingPoint 8 24))
(declare-const x19 (_ FloatingPoint 8 24))
(declare-const x20 (_ FloatingPoint 8 24))
(declare-const x21 (_ FloatingPoint 8 24))
(declare-const x22 (_ FloatingPoint 8 24))
(declare-const x23 (_ FloatingPoint 8 24))
(declare-const x24 (_ FloatingPoint 8 24))
(assert (fp.lt (fp.sub RNE (fp.add RNE (fp.sub RNE (fp.add RNE x22 x20) (fp.sub RNE x10 x9)) (fp.sub RNE (fp.mul RNE x6 x13) (fp.add RNE x7 x19))) (fp.sub RNE (fp.mul RNE (fp.neg x22) (fp.sub RNE x0 x8)) (fp.mul RNE (fp.add RNE x10 x6) (fp.div RNE x16 x13)))) (fp.mul RNE (fp.mul RNE (fp.sub RNE (fp.add RNE x19 x9) (fp.sub RNE x4 x20)) (fp.add RNE (fp.neg x20) (fp.mul RNE x5 x5))) (fp.add RNE (fp.neg (fp.neg x23)) (fp.sub RNE (fp.sub RNE x2 x8) (fp.div RNE x11 x17))))))
(assert (fp.geq (fp.div RNE (fp.div RNE (fp.add RNE (fp.neg x23) (fp.neg x13)) (fp.neg (fp.sub RNE x14 x13))) (fp.add RNE (fp.sub RNE (fp.div RNE x24 x11) (fp.neg x6)) (fp.add RNE (fp.div RNE x14 x0) (fp.sub RNE x12 x6)))) (fp.div RNE (fp.add RNE (fp.mul RNE (fp.add RNE x14 x14) (fp.div RNE x22 x23)) (fp.div RNE (fp.add RNE x14 x8) (fp.mul RNE x16 x18))) (fp.div RNE (fp.neg (fp.neg x14)) (fp.sub RNE (fp.neg x9) (fp.div RNE x11 x13))))))
(assert (fp.geq (fp.sub RNE (fp.sub RNE (fp.sub RNE (fp.mul RNE x7 x16) (fp.mul RNE x23 x24)) (fp.neg (fp.sub RNE x16 x11))) (fp.add RNE (fp.div RNE (fp.neg x8) (fp.mul RNE x12 x5)) (fp.div RNE (fp.neg x8) (fp.mul RNE x17 x10)))) (fp.add RNE (fp.neg (fp.mul RNE (fp.mul RNE x19 x6) (fp.add RNE x11 x14))) (fp.sub RNE (fp.sub RNE (fp.sub RNE x19 x18) (fp.div RNE x4 x5)) (fp.mul RNE (fp.div RNE x11 x9) (fp.add RNE x19 x23))))))
(assert (fp.geq (fp.sub RNE (fp.sub RNE (fp.sub RNE (fp.sub RNE x24 x2) (fp.sub RNE x13 x24)) (fp.div RNE (fp.add RNE x4 x3) (fp.neg x5))) (fp.sub RNE (fp.sub RNE (fp.neg x1) (fp.neg x21)) (fp.neg (fp.div RNE x15 x6)))) (fp.sub RNE (fp.sub RNE (fp.neg (fp.add RNE x18 x19)) (fp.div RNE (fp.mul RNE x12 x6) (fp.sub RNE x11 x2))) (fp.div RNE (fp.mul RNE (fp.mul RNE x6 x18) (fp.mul RNE x0 x1)) (fp.mul RNE (fp.sub RNE x5 x0) (fp.div RNE x0 x17))))))
(assert (fp.geq (fp.sub RNE (fp.div RNE (fp.add RNE (fp.sub RNE x16 x8) (fp.add RNE x2 x19)) (fp.neg (fp.div RNE x21 x9))) (fp.div RNE (fp.sub RNE (fp.sub RNE x15 x11) (fp.add RNE x2 x20)) (fp.sub RNE (fp.neg x16) (fp.add RNE x19 x5)))) (fp.add RNE (fp.mul RNE (fp.add RNE (fp.div RNE x16 x18) (fp.mul RNE x16 x22)) (fp.sub RNE (fp.mul RNE x8 x2) (fp.neg x5))) (fp.neg (fp.sub RNE (fp.sub RNE x1 x10) (fp.mul RNE x13 x23))))))
(assert (fp.leq (fp.add RNE (fp.mul RNE (fp.div RNE (fp.div RNE x4 x18) (fp.mul RNE x18 x10)) (fp.neg (fp.mul RNE x14 x21))) (fp.sub RNE (fp.neg (fp.mul RNE x13 x7)) (fp.sub RNE (fp.mul RNE x15 x13) (fp.div RNE x13 x12)))) (fp.mul RNE (fp.add RNE (fp.mul RNE (fp.add RNE x16 x23) (fp.sub RNE x11 x23)) (fp.div RNE (fp.mul RNE x0 x15) (fp.mul RNE x24 x4))) (fp.sub RNE (fp.add RNE (fp.mul RNE x15 x8) (fp.mul RNE x14 x14)) (fp.mul RNE (fp.neg x11) (fp.mul RNE x2 x12))))))
(assert (fp.leq (fp.add RNE (fp.sub RNE (fp.add RNE (fp.add RNE x0 x16) (fp.div RNE x9 x15)) (fp.add RNE (fp.add RNE x19 x22) (fp.add RNE x24 x13))) (fp.div RNE (fp.mul RNE (fp.neg x21) (fp.mul RNE x4 x7)) (fp.div RNE (fp.mul RNE x24 x13) (fp.sub RNE x2 x23)))) (fp.neg (fp.div RNE (fp.sub RNE (fp.div RNE x4 x11) (fp.div RNE x23 x22)) (fp.div RNE (fp.div RNE x5 x17) (fp.add RNE x19 x4))))))
(assert (fp.eq (fp.div RNE (fp.div RNE (fp.add RNE (fp.neg x5) (fp.div RNE x16 x23)) (fp.div RNE (fp.neg x22) (fp.mul RNE x18 x0))) (fp.sub RNE (fp.add RNE (fp.add RNE x6 x3) (fp.div RNE x23 x9)) (fp.mul RNE (fp.neg x16) (fp.mul RNE x19 x13)))) (fp.div RNE (fp.sub RNE (fp.mul RNE (fp.add RNE x12 x12) (fp.mul RNE x21 x6)) (fp.mul RNE (fp.mul RNE x7 x22) (fp.sub RNE x1 x21))) (fp.div RNE (fp.add RNE (fp.add RNE x23 x23) (fp.mul RNE x13 x4)) (fp.sub RNE (fp.mul RNE x6 x6) (fp.neg x7))))))
(assert (fp.leq (fp.sub RNE (fp.sub RNE (fp.sub RNE (fp.neg x9) (fp.neg x21)) (fp.add RNE (fp.mul RNE x23 x2) (fp.add RNE x0 x18))) (fp.neg (fp.div RNE (fp.add RNE x24 x9) (fp.mul RNE x14 x8)))) (fp.add RNE (fp.div RNE (fp.add RNE (fp.sub RNE x14 x12) (fp.add RNE x12 x14)) (fp.sub RNE (fp.div RNE x6 x19) (fp.mul RNE x6 x23))) (fp.sub RNE (fp.mul RNE (fp.neg x20) (fp.sub RNE x9 x5)) (fp.add RNE (fp.sub RNE x18 x21) (fp.sub RNE x1 x9))))))
(check-sat)
