db/data/2232212629280242627327513512246865714.z3.out
-------------------
2500.236632622
